TYPE : Vertex Cover
DIMENSION: 24
EDGE_DATA_SECTION:
0 8
0 18
0 22
0 23
1 6
1 8
1 11
1 15
2 16
3 4
3 10
3 14
3 16
3 20
3 21
3 23
4 12
4 22
5 6
5 17
6 10
6 16
7 20
8 9
8 10
9 20
10 11
10 17
11 15
11 17
11 18
11 23
12 17
14 17
14 22
15 17
16 18
18 19
18 20
19 22
-1
VERTEX_DEGREE:
4.0 4.0 1.0 7.0 3.0 2.0 4.0 1.0 4.0 2.0 5.0 6.0 2.0 0.0 3.0 3.0 4.0 6.0 5.0 2.0 4.0 1.0 4.0 3.0
VERTEX_COVER:
0 3 4 6 8 11 15 16 17 19 20 22
EOF
